120 % numero de elementos do set
1008
9111
7996
4247
4708
3957
891
9048
4476
4410
5790
970
1650
4379
6429
956
6216
989
8660
9362
2369
5048
7105
6841
1368
1554
8082
1266
3143
7747
7698
4443
1105
789
4539
5898
2254
9811
8483
6574
8924
6695
2911
8247
5577
4022
8884
5181
7426
7869
6945
7978
9192
5738
5915
1745
1216
2978
2222
5880
89
5407
2309
606
6740
636
5003
9298
7927
7690
3500
5758
8756
4052
618
2836
9145
6164
4436
8524
8759
5541
317
1688
618
1534
6889
3736
6715
906
2367
3256
8781
2627
14
3234
5267
9971
19
4882
5778
8094
2121
9964
7317
6978
7972
8980
912
9961
5034
7548
7163
6771
5828
7645
7733
8444
1721
7772